@relation main_cgpa_1102_with_id

@attribute row_id numeric
@attribute desired_department_match numeric
@attribute attendance numeric
@attribute weekly_study_time numeric
@attribute study_style numeric
@attribute topic_clarity numeric
@attribute sleep_duration numeric
@attribute stress_frequency numeric
@attribute weekly_responsibilities numeric
@attribute distraction_frequency numeric
@attribute study_environment numeric
@attribute support_level numeric
@attribute routine_manageability numeric
@attribute recent_sgpa_band {C0,C1,C2,C3}
@attribute cgpa_band {C0,C1,C2,C3}

@data
0,4,3,4,2,2,2,1,2,2,2,3,3,C2,C2
1,4,3,3,1,3,2,2,3,2,2,2,3,C1,C1
2,4,3,4,3,3,1,1,2,1,3,3,3,C3,C2
3,4,2,3,2,2,1,1,3,2,1,3,2,C2,C1
4,4,3,3,2,2,1,1,3,2,3,3,2,C2,C2
5,4,3,4,2,2,2,1,3,2,2,3,3,C2,C2
6,4,3,3,2,3,2,1,3,2,2,3,2,C1,C2
7,4,3,4,2,3,1,1,0,2,3,3,3,C2,C1
8,4,3,4,2,3,2,1,0,2,3,3,2,C2,C2
9,4,4,1,0,3,2,3,1,3,3,3,2,C2,C2
10,3,3,2,2,2,1,2,2,2,4,4,3,C3,C2
11,4,3,1,1,1,2,3,0,4,3,2,1,C1,C1
12,2,4,0,0,2,1,2,1,3,2,3,2,C2,C1
13,4,3,2,1,3,2,3,2,2,3,2,1,C3,C3
14,3,4,1,0,2,3,2,1,3,4,3,3,C3,C3
15,4,3,3,2,1,1,4,3,3,1,4,1,C1,C2
16,1,2,2,0,2,2,2,2,2,3,2,2,C0,C1
17,4,4,1,2,3,1,3,4,4,3,3,1,C2,C2
18,4,4,3,0,3,2,2,0,3,4,4,2,C3,C3
19,3,3,2,1,1,1,3,1,4,2,3,1,C2,C2
20,2,4,1,2,2,3,1,2,2,3,2,3,C1,C0
21,4,3,0,1,3,1,3,3,1,1,1,1,C3,C3
22,3,4,2,3,2,2,2,1,3,4,3,3,C2,C1
23,4,3,1,0,1,0,4,2,4,3,4,1,C0,C0
24,4,4,2,2,3,3,1,0,2,2,2,3,C3,C2
25,2,2,3,3,2,2,3,4,3,1,3,2,C1,C1
26,3,3,1,2,3,3,1,4,4,2,1,1,C2,C1
27,2,4,2,0,1,4,0,4,2,2,3,2,C2,C3
28,2,2,1,0,3,3,2,1,3,2,4,1,C1,C0
29,2,4,2,0,1,3,4,0,3,4,2,1,C3,C2
30,0,3,1,1,2,0,2,3,1,3,2,3,C0,C1
31,2,4,2,4,4,2,4,1,4,4,3,3,C3,C3
32,4,4,1,1,0,1,3,0,3,1,3,1,C3,C3
33,2,2,2,2,2,2,3,2,4,2,3,1,C1,C1
34,3,4,1,0,1,3,2,3,3,4,3,1,C0,C0
35,3,3,1,2,4,1,3,2,2,3,1,1,C3,C3
36,4,3,2,2,2,2,4,4,3,3,1,2,C2,C1
37,4,3,4,2,2,3,2,3,3,2,4,1,C2,C1
38,4,4,3,0,2,0,2,3,2,3,3,2,C2,C1
39,3,3,1,1,0,3,2,2,4,3,4,2,C3,C2
40,3,4,3,2,4,1,1,2,0,2,3,3,C0,C1
41,4,4,2,0,4,0,2,4,2,2,1,2,C0,C1
42,3,4,3,2,2,3,4,3,3,3,4,2,C3,C3
43,4,3,1,3,2,1,2,3,1,1,3,1,C0,C0
44,4,4,0,1,2,2,3,0,3,1,2,2,C3,C3
45,4,4,1,3,2,2,1,2,3,3,2,2,C2,C2
46,3,4,2,1,2,3,3,0,4,1,2,3,C3,C3
47,4,2,3,0,2,2,3,0,3,2,2,2,C3,C3
48,3,2,2,3,2,2,3,1,3,3,3,1,C3,C3
49,2,3,3,1,1,1,2,1,3,2,2,2,C2,C1
50,1,3,0,0,4,1,1,1,3,3,1,3,C0,C0
51,4,4,1,3,4,3,1,2,3,3,3,2,C0,C0
52,4,2,3,2,2,3,3,1,4,2,2,1,C1,C1
53,4,3,0,3,2,0,1,4,1,3,3,2,C2,C2
54,1,4,2,3,2,1,3,1,3,3,0,2,C2,C2
55,4,4,2,1,2,2,0,2,4,3,2,2,C0,C1
56,4,4,4,0,2,2,2,4,4,3,2,1,C1,C2
57,2,3,2,2,2,3,4,1,3,3,3,1,C3,C3
58,3,3,1,2,4,3,1,1,1,2,4,3,C2,C2
59,4,3,2,1,0,2,3,4,0,1,2,2,C2,C2
60,4,3,0,2,1,2,3,2,1,0,4,2,C2,C2
61,3,3,1,1,3,3,3,1,3,2,2,1,C3,C3
62,1,3,2,2,2,3,3,1,1,4,2,3,C3,C3
63,3,4,1,1,1,1,4,0,3,0,3,2,C3,C3
64,2,3,1,1,1,2,3,1,3,1,3,3,C2,C2
65,4,3,2,4,2,1,3,1,2,1,2,0,C2,C3
66,3,2,0,0,1,0,2,1,3,3,4,2,C2,C3
67,0,3,1,2,2,4,3,2,0,4,3,2,C2,C2
68,4,3,3,2,2,2,3,3,4,1,3,1,C2,C1
69,1,4,2,0,3,3,3,0,2,4,4,0,C0,C0
70,4,3,2,3,3,2,2,4,4,1,3,1,C0,C0
71,4,3,1,1,2,3,3,1,3,0,3,1,C3,C3
72,4,3,2,3,0,0,3,2,2,2,4,2,C1,C2
73,4,3,0,3,2,3,4,0,2,4,1,1,C1,C1
74,2,3,0,3,0,2,1,2,3,2,1,1,C1,C1
75,3,4,0,4,1,1,1,0,4,3,1,2,C2,C2
76,2,4,1,1,3,2,2,2,3,3,0,2,C1,C1
77,4,3,2,1,3,2,4,1,3,3,3,2,C0,C1
78,3,4,3,1,1,1,2,3,0,1,3,1,C3,C3
79,3,4,3,2,2,0,4,1,2,4,1,4,C1,C1
80,3,4,2,3,1,2,1,2,3,1,2,2,C1,C2
81,4,3,0,4,4,2,2,0,4,4,2,1,C3,C3
82,4,3,1,2,1,2,3,0,3,1,2,3,C0,C1
83,3,3,2,1,3,3,2,2,3,4,2,2,C0,C0
84,4,4,1,1,2,3,4,2,3,3,2,3,C3,C3
85,2,4,0,2,1,1,4,0,4,3,0,3,C2,C2
86,1,4,1,1,1,3,3,1,1,1,3,4,C1,C0
87,2,3,2,4,3,3,4,2,3,3,2,3,C2,C2
88,4,4,2,4,3,0,1,0,2,4,2,1,C1,C1
89,3,3,2,2,3,3,2,2,3,2,1,2,C3,C3
90,3,3,1,0,3,3,4,2,1,2,3,1,C2,C3
91,4,2,0,0,2,2,3,1,2,2,1,2,C3,C3
92,3,4,2,1,3,2,0,1,4,3,2,2,C0,C0
93,3,3,2,0,3,2,2,1,3,2,2,2,C1,C1
94,3,2,2,0,4,3,3,1,3,2,1,2,C3,C3
95,4,3,2,0,3,1,1,0,3,0,3,3,C2,C2
96,3,4,1,2,3,0,1,1,4,3,3,0,C2,C2
97,3,4,3,1,3,1,3,1,3,3,3,1,C1,C1
98,3,2,2,1,2,2,0,2,3,3,2,1,C0,C1
99,4,4,2,3,3,3,2,2,2,1,0,4,C0,C1
100,4,3,1,2,3,1,1,1,2,4,1,3,C1,C1
101,4,3,2,0,1,1,2,2,1,2,1,1,C3,C3
102,4,3,1,0,3,2,3,1,3,1,3,4,C2,C2
103,4,4,0,0,4,1,4,1,3,3,3,3,C2,C2
104,4,3,0,1,3,1,4,0,2,4,2,2,C0,C0
105,0,4,4,1,1,3,0,2,1,3,3,1,C0,C3
106,3,4,1,4,4,3,3,3,2,4,4,3,C0,C0
107,3,4,0,0,2,2,2,1,4,1,2,4,C3,C3
108,4,2,1,2,1,4,0,2,4,1,3,1,C3,C3
109,1,4,4,1,3,3,4,2,1,2,0,2,C1,C3
110,2,4,2,0,2,2,2,1,1,3,2,3,C1,C1
111,2,2,4,3,0,3,4,0,4,3,1,0,C0,C2
112,0,2,2,0,4,2,0,3,1,0,2,0,C2,C0
113,2,3,1,0,0,2,2,2,1,2,0,4,C3,C1
114,0,2,0,4,3,0,1,0,2,4,3,4,C0,C3
115,1,3,3,1,2,3,3,1,4,2,0,2,C0,C0
116,4,3,2,0,1,3,1,0,0,1,0,2,C2,C3
117,2,4,2,1,3,2,3,1,3,1,2,0,C0,C3
118,2,4,1,2,3,3,1,0,1,3,3,1,C0,C1
119,3,3,4,0,1,4,2,0,0,0,3,2,C3,C3
120,2,3,4,2,3,3,1,3,4,2,4,1,C2,C2
121,3,3,4,2,4,4,4,1,1,2,2,1,C0,C3
122,2,3,2,2,0,3,3,3,0,3,2,3,C2,C0
123,3,2,1,2,2,4,3,1,3,2,2,0,C0,C1
124,0,4,2,3,2,3,2,4,2,3,3,3,C0,C2
125,0,2,3,2,2,0,4,1,2,2,2,2,C1,C1
126,1,2,3,1,3,4,3,2,0,0,3,3,C2,C0
127,4,4,1,0,1,1,2,2,2,2,3,2,C2,C2
128,0,3,0,1,3,0,0,0,1,0,2,3,C0,C1
129,4,4,1,2,1,3,0,3,2,4,2,2,C0,C1
130,0,4,0,1,4,2,4,3,3,3,4,2,C3,C3
131,4,3,2,1,4,2,1,3,4,3,3,2,C0,C3
132,1,4,1,0,0,1,3,2,3,2,4,2,C3,C2
133,4,4,0,0,4,2,1,3,2,3,1,3,C0,C0
134,2,4,1,2,2,0,1,1,2,0,2,2,C0,C0
135,1,3,0,2,1,0,3,2,4,1,3,4,C2,C1
136,0,3,1,3,4,0,1,2,0,0,3,3,C1,C1
137,4,2,1,2,2,2,4,4,1,0,4,4,C0,C1
138,4,4,0,2,0,3,2,0,2,1,3,3,C0,C1
139,4,4,0,3,3,1,1,0,3,4,0,3,C0,C0
140,1,4,1,1,1,2,3,2,4,0,2,3,C0,C0
141,3,4,3,4,0,2,1,0,3,1,0,4,C3,C0
142,3,3,1,0,3,2,2,4,3,0,4,3,C3,C3
143,4,3,0,2,2,0,4,4,4,2,0,0,C3,C0
144,0,3,3,4,3,0,2,3,0,0,0,2,C3,C1
145,3,4,0,2,1,2,2,2,4,3,3,2,C3,C3
146,0,3,0,2,4,4,1,4,0,1,0,3,C1,C2
147,2,2,0,2,1,0,1,4,4,1,1,4,C3,C3
148,3,4,1,1,3,2,3,3,3,1,4,2,C0,C0
149,3,3,2,1,3,4,4,1,1,0,2,3,C0,C0
150,3,3,1,0,4,3,4,2,3,1,1,2,C1,C2
151,3,3,4,1,4,0,2,4,4,3,3,3,C0,C2
152,1,2,0,1,4,2,2,1,0,1,0,4,C0,C2
153,3,4,1,3,1,1,1,4,4,3,2,1,C3,C0
154,2,4,0,0,3,3,2,2,2,3,2,2,C2,C2
155,2,3,2,2,2,1,1,4,4,3,3,2,C1,C2
156,4,4,0,4,3,4,4,4,1,4,4,4,C2,C0
157,4,4,2,2,1,1,4,2,2,1,2,2,C2,C2
158,2,4,2,2,3,1,0,1,4,3,1,2,C0,C3
159,3,4,2,0,3,2,2,1,3,4,3,0,C2,C3
160,3,3,0,0,3,2,3,0,4,2,3,2,C1,C1
161,0,2,1,3,3,2,0,0,3,2,0,2,C1,C3
162,0,2,4,2,4,4,3,1,1,4,0,3,C1,C1
163,3,3,2,2,0,2,4,1,2,3,3,1,C3,C3
164,0,3,1,1,1,4,4,3,1,4,0,0,C3,C0
165,4,2,1,2,1,2,4,2,1,0,1,3,C2,C1
166,0,4,1,2,2,1,3,2,1,3,1,0,C1,C0
167,4,3,0,3,0,0,2,2,2,3,2,3,C1,C2
168,4,4,3,2,4,1,0,0,2,0,0,3,C0,C3
169,1,4,1,3,1,2,4,1,1,3,1,0,C0,C0
170,4,3,0,0,2,1,2,1,2,3,4,0,C1,C2
171,1,4,3,2,4,3,1,0,3,0,0,2,C0,C0
172,4,4,2,0,4,2,2,2,2,3,2,1,C1,C2
173,4,3,2,2,2,3,2,2,4,1,3,2,C1,C0
174,2,4,1,2,0,2,1,2,3,4,1,2,C1,C1
175,3,3,2,3,1,1,3,3,3,3,1,1,C2,C2
176,3,4,1,1,0,3,3,0,3,3,2,2,C1,C1
177,4,3,4,3,3,1,1,0,1,2,3,2,C3,C2
178,4,3,4,2,3,1,1,3,1,1,1,3,C2,C2
179,4,4,4,2,3,2,1,3,2,2,3,3,C2,C2
180,2,3,3,1,2,2,1,0,2,3,3,3,C1,C1
181,3,2,3,1,2,2,1,0,3,2,3,2,C1,C1
182,2,3,4,2,3,2,1,2,2,3,2,3,C2,C1
183,3,3,3,2,3,2,1,2,2,3,2,2,C1,C2
184,2,3,4,2,2,2,2,3,2,3,2,2,C2,C2
185,4,3,3,0,3,2,2,3,3,3,3,2,C2,C1
186,3,3,4,3,3,1,1,2,2,3,3,3,C2,C2
187,4,2,4,2,2,2,1,2,2,2,3,2,C2,C1
188,4,4,4,3,3,2,1,0,1,3,3,2,C2,C2
189,2,2,4,1,0,0,2,3,3,0,3,1,C2,C1
190,4,3,4,2,4,3,3,1,2,1,3,1,C3,C0
191,4,2,4,4,4,2,4,2,3,1,4,2,C0,C3
192,2,3,4,4,1,2,0,2,4,0,0,1,C0,C1
193,0,3,0,2,4,2,4,2,2,3,2,3,C0,C1
194,1,2,4,3,4,2,3,0,4,3,2,1,C0,C3
195,0,4,4,3,4,3,0,1,0,1,1,3,C3,C3
196,1,2,4,0,4,2,3,1,4,3,2,3,C1,C0
197,0,2,0,4,3,4,0,3,0,2,0,3,C0,C2
198,0,4,2,1,1,0,4,4,1,3,3,3,C3,C2
199,3,4,4,3,3,2,3,4,4,0,1,1,C1,C1
200,3,2,2,4,4,3,3,3,3,4,1,2,C0,C3
201,3,4,1,2,4,2,1,4,0,0,2,4,C0,C0
202,0,4,4,1,3,2,4,2,0,2,1,1,C0,C0
203,4,4,4,0,0,0,4,1,4,0,4,3,C0,C0
204,0,4,1,0,4,3,4,0,3,1,2,2,C3,C2
205,0,2,0,3,2,1,1,4,3,2,4,0,C1,C0
206,4,4,3,4,2,3,0,2,1,1,0,2,C1,C2
207,2,3,1,3,1,3,0,2,4,4,0,3,C3,C1
208,0,3,3,3,0,3,4,0,1,4,3,2,C1,C0
209,1,3,4,1,0,4,1,4,1,2,3,2,C0,C0
210,2,4,2,0,4,3,4,1,1,0,3,1,C1,C0
211,2,4,2,0,4,3,4,1,1,0,3,1,C1,C0
212,2,4,4,1,3,3,2,1,0,2,4,3,C1,C0
213,0,3,0,4,1,1,2,4,0,3,3,0,C1,C3
214,4,4,3,1,0,0,4,2,4,4,4,4,C2,C3
215,3,3,4,4,0,2,4,3,0,0,3,2,C3,C3
216,3,3,0,4,1,3,2,4,3,1,4,1,C2,C1
217,0,2,3,3,2,1,4,0,1,2,2,2,C0,C0
218,1,3,1,0,1,1,1,3,0,4,1,4,C0,C0
219,1,2,0,0,1,3,0,3,2,2,3,3,C1,C3
220,4,4,4,2,0,2,3,3,1,4,2,2,C3,C0
221,1,2,2,4,3,3,0,1,3,0,2,1,C3,C0
222,1,2,3,0,3,2,4,1,4,4,4,2,C2,C0
223,1,4,3,1,2,4,3,4,2,4,1,2,C3,C0
224,0,2,0,2,4,1,4,2,2,0,0,0,C2,C2
225,3,2,4,0,0,1,4,4,1,4,1,1,C0,C3
226,0,3,4,2,3,0,2,3,0,4,2,0,C3,C0
227,2,4,2,2,2,1,2,0,1,1,3,3,C2,C2
228,0,3,1,2,3,0,0,3,4,1,0,0,C1,C1
229,4,4,0,1,1,2,1,0,4,3,3,1,C0,C0
230,3,4,1,0,2,3,2,0,3,3,2,2,C3,C3
231,4,4,1,1,0,2,1,0,4,2,3,1,C2,C2
232,3,4,0,1,1,0,2,0,3,2,0,2,C2,C2
233,4,1,3,1,0,1,3,4,1,1,2,1,C1,C1
234,3,4,2,2,1,1,2,1,4,3,4,1,C2,C2
235,4,3,1,0,2,3,3,0,3,2,4,3,C0,C0
236,4,4,0,0,2,0,2,0,3,3,2,1,C2,C2
237,3,4,2,2,1,3,3,3,4,3,3,3,C3,C3
238,4,3,1,1,1,2,2,3,3,1,0,0,C3,C3
239,4,4,4,0,1,1,2,1,3,2,3,3,C2,C3
240,4,4,1,2,2,2,3,0,2,4,2,1,C3,C3
241,4,3,4,2,1,1,3,1,2,2,3,1,C2,C2
242,4,4,2,2,2,1,3,0,3,0,1,1,C3,C2
243,3,4,2,1,1,3,2,0,4,2,3,1,C3,C2
244,4,4,0,1,1,1,2,0,4,3,3,1,C2,C1
245,0,4,0,0,2,1,2,0,4,3,3,1,C3,C3
246,4,3,0,1,3,1,2,0,4,2,3,0,C3,C2
247,0,2,3,0,1,4,4,2,4,2,0,0,C2,C2
248,4,4,4,0,0,2,3,1,2,4,2,3,C3,C3
249,4,2,0,1,1,1,4,1,4,3,0,0,C2,C2
250,2,4,1,1,1,0,3,1,3,4,2,1,C2,C1
251,4,4,0,0,2,2,3,0,2,1,1,1,C3,C3
252,4,4,1,0,0,1,2,0,3,4,3,2,C3,C3
253,4,2,2,1,0,2,2,3,3,3,3,1,C1,C0
254,3,2,0,1,2,1,4,1,4,3,4,0,C2,C2
255,2,4,1,1,0,1,3,0,2,3,2,2,C1,C1
256,4,4,0,1,1,2,3,1,3,1,1,2,C1,C1
257,4,0,0,1,0,2,2,2,2,3,2,3,C3,C2
258,3,3,1,0,0,2,3,0,4,3,2,1,C3,C3
259,4,3,1,1,1,0,3,4,2,3,2,2,C1,C1
260,4,3,0,1,1,1,2,2,3,3,2,1,C1,C1
261,4,2,2,1,1,0,3,3,2,2,2,1,C1,C1
262,3,4,3,4,3,3,2,2,4,3,3,3,C3,C2
263,0,4,1,1,1,2,2,0,3,3,3,2,C1,C1
264,3,2,3,1,0,0,2,3,2,2,2,2,C1,C1
265,3,4,1,1,1,1,2,1,2,3,3,3,C2,C1
266,4,2,0,1,0,2,2,0,2,4,3,2,C2,C2
267,4,2,1,0,1,1,3,0,3,3,2,2,C1,C2
268,4,2,0,1,0,1,2,1,3,2,0,1,C1,C1
269,4,4,1,0,1,2,4,0,4,3,3,2,C1,C1
270,4,2,0,1,1,1,3,3,3,3,2,1,C1,C1
271,4,2,1,1,1,1,2,1,4,2,2,1,C1,C1
272,4,4,0,0,2,2,3,1,2,3,4,1,C2,C1
273,4,4,3,0,3,2,3,1,3,3,3,2,C3,C3
274,4,4,0,1,2,2,3,1,4,3,2,0,C2,C2
275,4,3,2,0,2,1,2,4,2,2,2,1,C1,C1
276,4,3,2,1,1,2,2,2,3,2,3,2,C3,C1
277,4,4,1,1,2,2,3,4,4,3,3,1,C2,C1
278,4,3,0,1,3,1,4,3,1,3,1,1,C3,C3
279,4,2,3,2,1,2,3,0,2,2,3,3,C1,C1
280,4,2,1,0,1,0,4,0,4,3,3,1,C1,C0
281,4,3,1,2,0,0,4,0,3,2,3,1,C0,C0
282,4,4,3,2,2,1,1,1,4,4,3,2,C2,C2
283,4,4,1,1,2,1,2,0,2,3,3,3,C2,C2
284,4,2,1,1,2,1,2,3,3,3,4,1,C0,C0
285,4,3,1,0,2,2,1,0,4,4,4,2,C1,C1
286,4,3,1,1,1,0,1,4,3,2,2,0,C2,C3
287,3,2,0,1,0,0,0,0,1,2,1,2,C2,C2
288,0,3,2,1,0,0,4,1,4,3,2,0,C0,C0
289,4,2,0,1,0,2,2,1,4,3,2,0,C1,C1
290,2,3,2,1,2,1,3,3,4,2,3,1,C2,C3
291,4,4,2,2,3,3,1,0,2,1,4,3,C3,C3
292,2,2,1,1,0,1,2,2,3,1,1,1,C0,C1
293,3,3,2,0,2,1,1,3,3,0,4,1,C2,C3
294,0,2,0,1,1,0,4,0,4,2,2,1,C2,C1
295,1,4,1,0,2,3,2,0,3,3,3,3,C3,C3
296,3,2,2,2,1,2,3,4,2,2,3,2,C1,C2
297,3,4,4,2,3,3,2,0,2,3,4,3,C3,C3
298,0,2,2,0,2,4,4,3,4,3,0,0,C2,C2
299,3,2,1,1,1,3,4,4,3,1,1,1,C0,C0
300,4,2,2,0,2,1,2,1,4,4,3,1,C3,C3
301,3,2,0,0,2,3,2,2,2,1,0,1,C2,C1
302,3,3,2,0,2,2,0,0,0,2,4,3,C2,C3
303,3,2,1,0,2,2,0,3,3,3,3,3,C2,C3
304,1,2,2,1,0,0,4,4,2,2,2,2,C2,C1
305,3,2,1,1,1,2,3,4,3,1,3,1,C1,C0
306,4,3,3,3,3,3,1,2,1,3,4,4,C2,C2
307,3,4,2,0,2,3,4,4,1,2,3,3,C1,C2
308,4,2,1,1,2,1,0,0,4,4,0,3,C2,C2
309,4,3,2,2,3,2,2,1,3,3,3,3,C2,C2
310,3,2,1,1,2,1,3,2,4,2,2,2,C1,C1
311,4,4,3,4,4,3,1,1,1,4,4,4,C3,C3
312,3,3,2,3,3,2,2,1,2,3,3,3,C2,C2
313,2,2,1,2,2,1,3,2,3,2,2,2,C1,C1
314,4,4,3,4,4,3,2,2,1,3,4,3,C3,C2
315,3,3,2,2,3,2,2,1,2,3,3,3,C2,C2
316,1,3,2,0,2,2,3,3,3,1,2,1,C1,C1
317,3,3,2,3,3,3,1,1,1,4,4,4,C2,C1
318,4,4,4,4,4,2,2,2,2,3,3,3,C3,C3
319,2,2,1,1,2,1,3,3,4,1,2,1,C1,C1
320,3,4,2,1,3,3,1,0,2,4,4,3,C3,C3
321,4,2,0,0,1,3,4,3,4,3,4,2,C1,C2
322,3,1,2,3,2,1,2,1,3,2,2,1,C3,C3
323,3,2,1,0,1,1,2,0,3,3,2,1,C2,C3
324,4,2,3,2,1,1,1,3,3,2,2,2,C3,C2
325,2,2,0,1,1,0,1,1,2,4,2,0,C1,C1
326,4,2,3,1,1,0,1,0,2,3,2,1,C1,C1
327,1,2,3,3,3,1,2,2,4,4,4,2,C1,C0
328,4,4,4,2,3,0,2,1,3,3,3,3,C3,C3
329,4,2,1,1,3,1,3,1,4,3,4,0,C1,C1
330,4,4,1,4,1,2,1,0,4,2,2,1,C2,C2
331,4,3,2,4,1,1,2,3,3,2,3,2,C3,C2
332,4,3,1,2,1,0,2,1,4,2,3,2,C2,C3
333,2,4,1,3,1,0,3,0,2,3,2,2,C1,C2
334,4,2,2,0,3,2,1,3,2,2,1,1,C2,C2
335,3,4,1,1,1,0,1,1,4,4,2,1,C1,C1
336,4,2,3,2,2,1,4,2,4,3,3,2,C1,C1
337,4,2,0,3,2,0,2,0,2,1,2,1,C2,C2
338,1,3,2,0,1,1,2,3,2,1,4,2,C1,C1
339,3,3,0,1,1,2,0,4,2,4,3,1,C1,C2
340,4,2,1,3,0,2,3,0,3,4,2,1,C1,C1
341,4,3,1,1,1,0,2,4,3,3,3,1,C1,C1
342,4,4,4,1,2,2,1,2,2,3,0,0,C1,C1
343,4,2,4,1,2,1,3,3,1,3,2,3,C3,C2
344,4,2,0,0,2,0,2,3,0,2,3,1,C2,C2
345,4,2,0,0,2,2,1,3,1,2,3,1,C1,C3
346,3,3,1,1,2,1,2,1,4,2,3,2,C1,C0
347,1,4,2,0,3,1,1,4,2,2,4,1,C1,C0
348,1,1,2,0,2,1,3,3,2,3,4,2,C3,C2
349,4,2,0,1,3,2,2,3,3,3,2,0,C1,C1
350,4,3,1,3,1,1,1,0,3,2,2,2,C2,C1
351,3,1,3,0,3,1,1,2,4,2,3,3,C2,C1
352,4,3,1,2,1,2,2,0,2,2,3,1,C0,C0
353,4,2,2,1,3,0,4,3,2,4,4,1,C1,C0
354,4,4,0,0,2,3,3,1,4,3,3,4,C1,C1
355,0,2,2,1,3,1,2,2,3,2,3,2,C1,C1
356,4,2,1,2,2,3,3,1,4,1,3,4,C3,C3
357,4,2,0,2,1,0,1,3,2,2,2,1,C3,C2
358,4,2,1,0,1,0,4,3,3,3,2,3,C1,C0
359,4,1,4,0,2,1,1,3,2,2,3,1,C1,C1
360,4,4,2,3,3,2,2,0,1,1,2,2,C3,C3
361,3,4,0,1,4,2,3,2,2,3,2,1,C1,C1
362,0,3,2,1,3,2,1,0,3,1,3,1,C2,C2
363,4,2,2,3,2,1,3,0,3,2,3,2,C3,C2
364,3,3,4,1,3,2,2,1,2,1,3,2,C1,C1
365,4,4,1,0,2,2,3,0,2,3,2,1,C1,C1
366,4,2,0,1,3,3,2,4,0,1,2,1,C0,C0
367,4,3,1,0,2,1,2,2,2,3,4,1,C1,C0
368,4,3,3,0,3,0,2,4,2,3,3,1,C2,C2
369,4,2,3,3,2,0,3,4,3,3,0,1,C2,C2
370,2,2,2,3,1,4,2,0,1,1,4,2,C1,C1
371,2,3,3,0,4,2,0,4,1,4,3,2,C1,C1
372,1,2,4,4,1,0,1,1,4,3,3,2,C2,C3
373,2,4,0,0,1,4,3,4,4,4,1,2,C0,C0
374,4,4,1,0,3,1,4,3,3,1,4,3,C1,C2
375,2,1,4,4,4,0,2,3,3,3,4,3,C2,C1
376,3,4,3,0,1,3,3,2,2,3,3,0,C1,C2
377,2,3,2,1,4,4,0,3,3,3,4,2,C1,C1
378,4,1,4,1,0,2,0,2,2,3,1,4,C2,C0
379,3,4,1,0,1,3,1,3,2,1,1,0,C0,C2
380,4,2,3,3,4,4,1,1,1,2,1,1,C3,C1
381,0,3,3,4,2,1,3,1,2,1,2,1,C0,C3
382,2,2,2,3,2,2,4,0,3,0,4,3,C2,C2
383,4,4,1,0,2,3,1,0,0,2,2,4,C3,C0
384,0,0,0,1,1,3,0,1,3,0,3,1,C3,C1
385,4,2,1,2,1,0,1,1,0,4,2,0,C0,C2
386,0,3,3,0,0,4,3,3,2,2,1,2,C2,C1
387,1,1,1,2,0,2,4,2,2,3,1,1,C0,C3
388,0,1,3,4,3,2,1,1,1,4,3,3,C2,C1
389,1,1,2,2,0,3,3,2,1,4,0,1,C0,C1
390,0,4,4,2,4,1,1,0,3,1,1,3,C1,C0
391,2,1,2,0,0,3,1,0,4,1,0,2,C2,C2
392,1,3,3,1,0,1,1,0,0,2,0,0,C0,C3
393,0,4,2,1,3,4,1,3,4,1,0,4,C1,C3
394,1,1,0,2,2,1,1,0,3,3,4,4,C3,C3
395,1,3,4,2,1,3,1,3,2,2,1,1,C3,C2
396,4,0,2,1,4,4,2,4,3,0,4,0,C0,C3
397,2,3,0,0,3,1,4,1,3,1,1,3,C1,C2
398,4,4,2,0,1,2,2,4,2,3,1,2,C3,C2
399,1,2,1,4,3,0,3,4,0,4,3,3,C2,C1
400,1,3,4,4,3,0,3,3,1,2,3,3,C3,C1
401,4,0,1,2,3,2,1,0,3,0,1,0,C1,C3
402,4,1,1,2,1,4,0,4,3,0,1,4,C0,C2
403,1,4,0,0,1,0,1,1,2,3,1,0,C1,C1
404,3,1,0,3,1,4,4,1,4,0,3,1,C3,C2
405,4,4,3,3,1,0,3,3,3,2,0,1,C2,C3
406,1,3,2,2,1,3,1,4,4,3,4,2,C2,C2
407,1,2,0,2,1,2,3,0,1,1,3,4,C2,C0
408,1,0,3,2,0,3,3,3,2,1,3,2,C1,C0
409,2,0,1,2,1,4,1,0,0,2,3,4,C2,C3
410,1,0,1,4,2,2,3,2,4,4,3,2,C3,C0
411,3,3,4,0,2,1,4,0,4,0,2,0,C1,C0
412,4,3,4,4,2,2,1,3,2,4,1,2,C2,C0
413,0,3,4,1,2,1,4,3,4,3,0,3,C0,C0
414,4,0,4,1,1,1,1,1,4,0,4,3,C3,C2
415,0,3,4,2,1,3,3,1,4,2,0,1,C3,C1
416,4,1,2,0,1,3,0,4,0,1,1,0,C3,C2
417,3,2,3,0,1,3,4,3,4,0,4,1,C2,C3
418,2,4,0,0,0,4,4,4,0,0,1,2,C3,C3
419,3,4,3,4,3,2,2,4,1,3,0,3,C1,C1
420,0,1,1,3,3,0,1,4,1,0,4,0,C2,C0
421,0,0,3,4,2,3,0,1,1,2,4,3,C0,C0
422,1,3,2,4,2,1,2,1,1,3,2,2,C3,C2
423,1,4,2,1,1,4,1,3,4,3,4,0,C0,C2
424,1,0,3,2,4,0,1,1,1,1,3,3,C1,C1
425,1,2,0,3,4,3,2,0,4,4,2,1,C0,C3
426,4,3,3,3,1,1,3,0,3,0,1,4,C1,C3
427,1,2,3,1,3,4,1,2,1,3,1,3,C3,C0
428,4,2,0,0,2,2,1,2,4,1,0,1,C2,C2
429,4,1,1,1,2,1,1,0,1,1,4,4,C1,C0
430,0,4,2,2,4,1,0,4,2,4,0,2,C0,C3
431,4,3,0,1,2,2,2,3,1,4,0,3,C1,C3
432,0,3,1,0,4,4,1,3,2,0,4,2,C0,C2
433,2,2,3,1,2,1,0,3,2,4,1,2,C3,C1
434,4,4,4,4,0,1,2,3,2,1,0,1,C3,C2
435,1,4,4,1,2,1,3,3,4,3,3,1,C0,C1
436,1,4,2,4,3,3,3,1,1,1,4,0,C3,C1
437,2,2,3,1,0,0,2,3,2,3,1,0,C1,C0
438,4,4,3,4,2,1,0,2,1,0,4,4,C3,C1
439,0,4,4,1,2,0,1,1,4,4,3,0,C1,C3
440,1,2,1,3,4,4,0,0,3,2,1,0,C3,C0
441,2,2,3,0,3,3,3,2,1,2,3,0,C1,C2
442,0,4,2,0,3,1,0,3,2,0,0,1,C2,C1
443,4,2,4,0,4,3,3,1,3,2,4,3,C0,C3
444,3,3,0,1,2,4,0,0,2,0,0,0,C0,C2
445,0,4,3,2,4,2,0,0,3,1,1,2,C1,C2
446,2,3,3,1,0,2,2,0,2,2,1,3,C3,C3
447,4,4,4,4,0,3,4,2,3,4,1,2,C3,C2
448,2,4,1,4,1,0,0,2,1,2,4,2,C1,C2
449,2,4,4,4,0,1,4,2,1,3,1,3,C0,C1
450,2,3,4,1,3,2,4,2,2,1,1,0,C1,C1
451,4,3,1,4,4,3,4,4,1,0,3,4,C1,C2
452,3,3,3,1,4,0,4,2,3,3,2,3,C3,C3
453,2,3,3,3,4,1,1,3,1,0,3,1,C0,C3
454,0,2,1,3,3,1,3,3,2,0,2,4,C1,C0
455,3,4,2,4,3,1,4,4,3,3,0,1,C2,C3
456,3,2,4,2,0,0,3,1,4,0,1,4,C3,C1
457,1,4,3,2,0,2,4,4,2,2,4,4,C0,C3
458,3,3,3,4,0,3,2,0,2,0,0,2,C1,C3
459,3,4,0,1,2,1,3,0,2,1,1,3,C3,C1
460,3,2,1,0,4,4,3,4,2,3,4,4,C0,C1
461,3,3,1,4,1,0,1,1,3,4,2,4,C1,C2
462,2,2,3,3,1,3,1,3,3,1,3,2,C3,C1
463,3,2,2,2,2,0,0,2,0,0,4,4,C1,C2
464,3,3,2,1,2,2,1,4,4,3,2,2,C2,C0
465,4,4,3,4,2,1,2,1,3,4,2,2,C0,C2
466,3,2,0,0,1,1,2,3,2,1,1,2,C3,C0
467,0,4,3,4,3,3,1,3,2,2,1,4,C0,C1
468,0,3,1,1,0,1,3,1,4,3,4,1,C2,C1
469,3,4,1,0,2,4,4,4,4,0,4,2,C3,C2
470,1,3,3,4,4,3,3,1,0,0,4,3,C1,C0
471,0,2,4,3,0,0,1,2,0,0,3,2,C3,C0
472,4,4,2,2,4,1,1,2,0,3,1,2,C3,C0
473,0,4,0,3,3,1,2,0,1,1,3,1,C0,C0
474,1,4,1,3,2,1,1,3,0,4,2,3,C3,C0
475,3,3,1,3,1,3,0,2,4,4,2,3,C1,C0
476,2,2,3,4,1,0,2,2,4,1,0,1,C3,C0
477,0,3,1,1,0,3,1,3,4,3,1,3,C3,C0
478,0,2,2,2,1,0,4,1,0,1,4,3,C0,C2
479,0,4,4,0,3,3,4,0,3,2,0,0,C2,C2
480,1,2,0,3,1,2,0,1,2,0,3,1,C3,C3
481,2,4,4,2,0,4,1,4,1,0,2,4,C1,C0
482,1,2,2,3,2,1,4,2,4,1,1,1,C3,C1
483,4,2,2,0,1,0,1,0,3,2,2,4,C0,C2
484,3,3,0,1,2,3,0,2,0,1,4,3,C1,C3
485,4,2,4,0,2,0,2,0,4,2,2,4,C1,C0
486,0,2,0,3,0,2,4,1,1,1,1,2,C3,C1
487,2,4,0,2,2,1,4,0,0,0,3,3,C1,C0
488,4,3,4,3,0,0,4,4,4,0,2,3,C3,C3
489,1,4,4,3,0,4,4,4,4,0,0,0,C3,C0
490,3,3,0,3,4,2,4,4,0,4,0,3,C3,C1
491,2,4,0,4,4,2,0,1,3,0,1,4,C1,C0
492,3,2,0,0,1,4,2,2,4,2,0,2,C2,C3
493,2,4,3,2,3,2,0,1,0,4,4,4,C1,C2
494,3,3,1,1,2,3,2,2,1,2,3,0,C3,C2
495,1,2,2,4,4,4,0,4,3,1,3,4,C1,C1
496,4,4,3,2,2,0,3,1,1,2,3,1,C0,C3
497,3,4,1,4,2,0,2,2,1,2,3,0,C0,C1
498,3,4,0,3,0,0,1,0,3,0,4,3,C3,C0
499,2,4,2,4,3,4,2,4,3,0,2,0,C2,C1
500,0,4,2,1,1,1,4,0,1,3,0,0,C2,C2
501,3,4,1,1,3,2,0,3,1,0,3,4,C1,C0
502,0,3,1,1,4,3,3,0,0,0,0,2,C3,C1
503,4,3,0,3,1,0,2,0,4,1,4,1,C0,C3
504,2,4,1,4,0,1,4,4,4,1,4,3,C2,C1
505,1,4,0,1,3,3,4,3,4,1,1,0,C2,C2
506,1,2,1,0,2,4,1,2,2,3,0,4,C2,C3
507,3,3,0,4,3,1,3,0,2,2,4,2,C3,C3
508,3,3,1,2,2,2,4,0,4,0,4,0,C1,C3
509,0,2,0,1,3,4,2,0,2,0,1,0,C0,C3
510,0,4,4,0,3,1,0,2,2,0,1,3,C1,C2
511,2,2,2,0,2,1,1,3,2,0,4,0,C1,C2
512,3,4,3,0,1,2,2,4,0,2,0,0,C0,C3
513,2,2,1,1,1,3,3,1,2,3,4,3,C2,C2
514,0,3,1,4,4,0,2,3,2,0,1,3,C2,C3
515,1,4,1,0,2,0,4,0,3,0,1,3,C3,C1
516,2,3,3,3,1,3,1,4,4,2,3,3,C1,C3
517,4,4,0,1,0,0,2,2,3,0,1,1,C3,C0
518,4,2,0,3,4,4,0,0,0,0,1,1,C2,C3
519,3,4,3,0,0,2,4,0,1,3,3,1,C3,C2
520,3,3,2,2,0,3,3,2,0,0,3,3,C3,C0
521,4,2,1,3,1,3,2,4,2,1,2,0,C1,C2
522,0,2,2,0,3,4,2,2,4,4,1,3,C2,C2
523,0,3,2,0,4,3,1,2,4,3,1,0,C1,C2
524,4,4,4,2,0,4,1,3,2,3,4,2,C1,C3
525,3,3,2,4,2,2,2,3,3,0,2,0,C1,C0
526,4,3,2,2,1,4,0,1,1,0,4,0,C0,C1
527,3,3,0,0,2,0,4,4,2,3,0,0,C0,C1
528,4,2,1,4,4,3,1,1,4,4,1,2,C1,C1
529,1,4,1,3,3,0,3,4,2,4,0,1,C3,C2
530,0,4,3,0,4,2,0,2,1,4,2,4,C2,C2
531,3,4,3,3,4,1,0,4,0,0,0,3,C0,C3
532,4,2,0,0,1,1,4,0,4,3,3,4,C3,C2
533,4,2,1,1,3,1,3,2,3,3,3,3,C1,C1
534,4,3,0,3,3,1,4,2,1,2,3,3,C0,C3
535,1,4,0,2,0,3,2,3,4,0,2,2,C3,C1
536,1,3,0,0,3,1,4,2,2,0,3,4,C1,C0
537,1,2,0,0,0,0,2,3,1,3,2,0,C2,C1
538,2,3,0,0,0,1,1,0,0,2,2,1,C3,C3
539,1,3,3,1,1,1,4,1,2,2,2,3,C1,C2
540,2,4,4,2,2,0,4,3,1,1,0,2,C0,C0
541,3,4,3,1,2,2,2,1,3,4,3,0,C1,C0
542,4,3,0,2,0,0,2,1,3,2,4,2,C0,C1
543,2,4,2,2,2,1,3,0,2,1,4,3,C1,C3
544,3,3,1,0,2,1,4,1,3,3,2,3,C0,C0
545,1,3,3,3,1,1,1,3,4,2,0,0,C3,C0
546,3,3,4,4,3,3,4,2,4,0,4,3,C2,C3
547,4,2,1,0,3,4,4,0,3,2,0,2,C3,C2
548,1,4,2,4,3,3,2,4,4,2,4,4,C2,C3
549,3,4,1,0,0,3,0,0,1,3,3,1,C1,C2
550,4,1,0,1,0,1,2,1,4,2,1,1,C0,C0
551,4,2,0,0,3,0,2,2,2,2,3,4,C3,C2
552,1,4,1,1,3,4,4,3,3,4,0,3,C0,C1
553,4,2,2,0,3,1,3,1,1,1,1,2,C3,C3
554,0,3,1,0,1,2,4,3,0,1,3,2,C3,C1
555,0,4,2,0,2,1,3,2,4,3,2,1,C1,C1
556,1,2,1,1,1,1,3,2,2,2,4,2,C0,C0
557,4,2,4,0,1,2,3,1,2,4,0,1,C0,C0
558,4,3,2,1,0,1,0,0,0,0,4,3,C0,C2
559,4,2,1,0,1,1,4,1,3,3,3,2,C3,C3
560,0,4,0,3,4,3,3,1,3,0,0,0,C2,C2
561,4,4,1,1,2,2,2,3,1,0,1,1,C3,C2
562,1,4,0,0,2,1,2,2,2,4,2,0,C3,C2
563,0,4,0,2,2,0,0,0,1,3,3,3,C2,C3
564,3,2,1,1,2,3,3,0,4,3,2,4,C1,C1
565,1,3,0,4,2,1,1,0,0,0,2,4,C2,C2
566,0,4,3,4,4,0,2,3,3,4,2,3,C1,C3
567,2,3,1,0,2,0,3,1,0,3,1,2,C1,C2
568,2,4,2,2,1,4,4,0,2,2,4,3,C2,C0
569,3,4,0,0,1,2,0,0,3,1,3,4,C1,C0
570,4,4,4,2,1,2,3,0,2,1,2,1,C0,C1
571,3,2,4,1,0,3,4,0,1,0,4,1,C1,C1
572,4,2,1,3,0,3,4,1,3,2,3,2,C1,C1
573,1,4,4,4,1,3,2,2,3,1,2,1,C3,C3
574,4,3,0,0,3,0,3,3,4,2,3,1,C0,C1
575,3,4,3,0,3,1,0,3,4,3,1,4,C0,C3
576,2,3,1,1,1,1,2,1,3,3,2,4,C3,C2
577,2,2,4,1,4,0,0,2,4,0,1,0,C0,C2
578,1,2,1,1,3,1,4,0,2,3,4,2,C0,C0
579,1,2,1,3,1,3,2,0,1,0,3,2,C2,C0
580,3,4,1,0,2,4,3,2,3,3,2,2,C2,C2
581,2,3,0,2,4,3,2,3,0,2,2,2,C2,C0
582,0,3,2,2,3,1,3,1,2,1,0,1,C1,C1
583,2,3,0,1,1,3,4,4,2,4,2,2,C2,C1
584,3,3,0,3,1,1,2,0,1,3,3,3,C1,C1
585,3,4,4,0,0,3,2,4,4,3,2,4,C2,C1
586,2,2,1,2,2,0,3,0,3,0,2,2,C0,C0
587,4,4,2,3,0,3,2,3,4,3,3,2,C3,C0
588,2,4,2,2,0,2,2,3,3,2,4,3,C1,C1
589,4,3,1,0,4,0,2,1,3,4,4,4,C0,C1
590,0,4,1,4,1,1,0,3,0,3,1,2,C1,C0
591,3,2,1,1,1,1,3,0,2,2,1,3,C2,C2
592,0,2,0,0,3,4,2,2,3,0,2,4,C1,C0
593,4,2,1,4,3,2,2,1,1,2,3,2,C2,C2
594,1,3,3,1,1,1,0,3,3,1,2,4,C1,C3
595,4,2,1,2,0,0,0,2,2,3,1,2,C2,C2
596,3,2,2,4,4,3,4,4,2,0,2,4,C3,C1
597,3,2,2,2,3,2,0,1,0,1,4,1,C2,C1
598,4,4,2,1,1,0,3,4,0,0,3,2,C3,C3
599,0,3,2,0,2,4,0,3,2,2,4,1,C2,C2
600,3,3,3,4,0,3,1,2,3,1,1,4,C1,C3
601,3,2,4,3,1,1,1,3,2,3,4,1,C2,C0
602,4,2,0,1,2,2,3,0,0,4,4,4,C2,C2
603,0,2,2,2,0,3,2,4,3,4,0,1,C3,C1
604,0,3,1,4,4,3,4,1,4,2,1,0,C2,C0
605,3,3,2,4,2,1,4,2,4,3,3,4,C1,C0
606,1,2,2,1,2,1,2,1,3,3,1,0,C3,C2
607,3,2,1,0,2,3,4,2,2,0,0,1,C3,C3
608,1,3,3,1,4,1,2,4,2,2,2,3,C3,C3
609,2,3,3,0,0,0,4,4,0,4,0,2,C0,C0
610,4,3,0,3,4,1,4,2,4,0,0,2,C3,C0
611,1,4,3,0,3,0,2,0,2,3,0,2,C3,C1
612,0,4,3,3,0,2,0,0,2,2,0,3,C0,C0
613,4,2,1,2,4,0,3,3,1,1,1,3,C3,C0
614,0,3,1,1,2,2,1,3,4,4,0,4,C2,C3
615,0,3,2,0,2,4,4,4,4,3,0,4,C0,C0
616,3,3,2,3,0,3,1,1,4,2,1,1,C2,C3
617,2,4,4,2,0,4,1,3,4,3,4,3,C0,C2
618,3,2,1,0,0,4,1,0,3,4,0,2,C0,C1
619,2,3,0,0,4,2,0,0,2,1,4,1,C1,C3
620,3,3,1,0,2,2,4,3,1,2,2,1,C0,C3
621,0,2,1,2,2,2,0,1,2,4,4,0,C1,C0
622,3,3,0,0,1,0,1,3,0,3,0,1,C3,C0
623,2,2,4,2,2,4,1,1,3,1,1,1,C0,C2
624,4,4,2,3,4,0,1,2,0,1,3,3,C3,C0
625,4,3,1,2,1,0,1,0,3,0,2,1,C1,C1
626,1,3,4,0,4,1,1,3,4,0,0,4,C3,C0
627,0,2,0,2,3,3,2,3,1,3,3,2,C3,C2
628,2,2,4,3,2,4,1,4,0,3,3,4,C0,C2
629,3,4,2,3,0,2,4,4,4,3,1,3,C1,C3
630,3,2,0,2,4,4,1,3,3,1,4,3,C0,C1
631,0,3,3,1,4,3,0,2,0,1,1,1,C3,C3
632,2,2,3,3,2,3,4,0,2,2,3,0,C3,C0
633,2,3,2,4,1,1,2,2,1,3,3,1,C2,C2
634,1,4,1,4,4,3,0,1,0,0,0,1,C0,C1
635,1,2,2,0,1,3,3,1,3,1,2,1,C2,C2
636,2,2,1,3,0,3,2,1,2,1,4,1,C0,C3
637,2,4,0,2,4,2,0,2,3,0,1,0,C0,C2
638,4,3,3,4,1,4,2,3,3,1,3,1,C0,C2
639,2,2,1,4,2,2,2,2,0,3,0,2,C1,C3
640,1,3,0,0,4,0,2,4,4,2,0,1,C3,C1
641,2,4,0,1,4,1,2,0,0,4,2,3,C1,C3
642,1,2,0,4,2,0,2,4,3,4,2,2,C3,C1
643,4,2,0,3,2,4,4,3,3,2,4,2,C3,C2
644,0,3,3,4,1,4,3,1,1,1,0,1,C3,C3
645,4,4,4,3,3,1,0,2,3,2,1,3,C1,C1
646,3,4,3,2,2,1,1,1,4,1,2,4,C0,C0
647,2,3,4,0,2,4,3,0,3,4,3,2,C1,C2
648,1,4,2,2,3,1,4,4,2,2,2,3,C0,C2
649,3,2,2,1,1,3,1,2,2,3,4,4,C1,C3
650,0,2,4,2,2,4,3,0,1,0,0,4,C1,C2
651,4,2,4,2,2,1,0,2,2,4,3,0,C2,C0
652,1,3,3,3,3,3,2,2,3,1,0,4,C3,C3
653,1,3,2,0,4,2,4,3,2,3,3,0,C0,C0
654,0,2,3,4,0,3,3,3,1,4,1,2,C0,C2
655,2,4,0,1,2,1,0,4,3,1,2,0,C0,C2
656,2,2,3,2,1,3,1,4,4,4,3,2,C2,C3
657,4,4,3,4,3,1,1,4,3,1,2,1,C3,C1
658,1,2,1,4,1,4,3,1,0,4,0,0,C0,C2
659,3,2,1,1,1,4,1,1,4,2,2,3,C3,C2
660,0,4,0,0,4,3,1,2,2,0,4,3,C3,C1
661,4,4,2,4,1,3,1,1,1,4,2,3,C3,C0
662,2,4,0,2,4,4,2,1,2,2,1,3,C2,C0
663,3,3,2,0,0,2,2,2,0,3,1,4,C3,C2
664,3,4,3,3,2,1,2,3,0,4,0,2,C0,C3
665,2,3,1,3,0,1,0,2,4,4,2,3,C2,C1
666,1,3,1,4,3,1,2,4,3,2,2,1,C1,C1
667,0,2,4,0,4,3,3,1,4,4,4,3,C1,C1
668,1,3,2,3,1,2,0,2,0,1,2,1,C0,C2
669,4,4,1,4,4,2,0,3,4,0,2,4,C1,C2
670,4,2,1,0,2,3,4,0,3,0,4,4,C1,C1
671,3,3,3,3,4,1,0,4,3,2,4,4,C0,C1
672,0,2,0,0,3,4,0,4,1,4,1,0,C1,C0
673,3,2,3,4,4,1,4,0,2,0,2,4,C0,C2
674,0,4,3,4,2,2,0,4,4,1,1,3,C0,C0
675,2,2,2,1,0,3,1,4,0,0,1,1,C2,C3
676,2,4,0,1,3,2,2,0,2,3,2,4,C0,C2
677,4,3,3,3,2,3,4,3,1,2,2,1,C3,C1
678,2,3,3,0,4,0,4,4,3,4,1,4,C0,C2
679,0,4,2,4,0,1,2,3,3,0,3,0,C3,C1
680,1,3,1,0,2,0,4,4,0,1,4,1,C3,C2
681,1,2,4,0,4,3,0,2,4,4,0,1,C3,C3
682,4,4,3,0,1,4,3,2,3,0,3,4,C0,C2
683,4,4,3,3,3,3,1,0,0,4,1,2,C0,C0
684,1,3,0,0,1,1,2,3,3,0,1,4,C0,C0
685,1,4,1,2,4,0,2,3,2,3,1,3,C2,C0
686,1,4,4,4,1,1,3,2,0,3,1,0,C0,C3
687,2,4,0,4,0,3,4,3,2,4,4,0,C0,C2
688,0,4,0,0,1,4,1,1,0,1,2,2,C2,C1
689,2,3,0,0,4,2,3,2,3,1,0,2,C0,C0
690,1,4,3,4,3,2,0,3,2,0,1,0,C1,C0
691,3,3,0,4,2,1,4,4,2,4,2,4,C1,C3
692,3,3,1,3,0,1,0,2,1,0,3,2,C0,C3
693,4,4,2,4,0,0,0,4,1,0,3,1,C3,C0
694,0,3,3,1,1,3,4,3,0,4,3,3,C1,C1
695,0,2,2,4,1,2,3,3,3,0,4,1,C2,C3
696,1,3,4,1,1,2,1,1,4,1,0,2,C0,C0
697,0,2,1,4,4,0,2,4,2,0,4,4,C0,C3
698,3,3,3,3,1,1,1,4,1,1,4,2,C1,C1
699,4,2,0,1,3,0,2,0,1,2,1,3,C0,C0
700,3,3,3,3,4,0,2,2,2,0,0,0,C1,C1
701,3,3,1,3,2,1,1,0,0,3,0,0,C2,C3
702,0,2,2,0,1,2,1,4,1,1,1,4,C2,C0
703,1,3,4,1,4,1,0,2,0,4,0,3,C1,C0
704,0,4,1,1,0,3,0,1,1,0,0,4,C1,C2
705,0,2,1,0,1,1,1,1,3,4,0,4,C2,C0
706,2,4,0,1,1,4,4,1,4,0,4,2,C0,C3
707,3,4,3,3,3,1,1,2,4,0,4,2,C3,C1
708,1,4,3,0,2,4,1,2,3,3,2,0,C3,C3
709,2,4,1,3,1,3,3,4,0,2,0,1,C3,C1
710,3,3,3,0,1,1,4,2,2,1,3,1,C2,C3
711,4,4,3,3,2,2,3,2,3,2,1,3,C2,C1
712,2,2,1,3,3,3,0,0,2,3,4,0,C2,C0
713,0,4,0,0,2,3,0,4,0,2,3,4,C2,C2
714,0,3,4,2,0,0,2,0,3,1,1,3,C1,C1
715,0,3,3,3,0,2,0,2,3,1,2,1,C3,C3
716,1,3,4,4,2,0,2,4,2,2,4,1,C0,C3
717,2,2,3,0,0,0,3,4,2,3,4,1,C0,C0
718,1,4,2,2,1,1,3,1,2,2,3,3,C0,C2
719,2,3,0,3,4,4,0,1,4,4,2,0,C1,C1
720,2,2,0,0,1,0,1,1,3,1,0,1,C0,C3
721,2,2,4,4,4,4,3,0,1,4,0,1,C2,C1
722,2,3,3,2,3,0,1,4,4,2,2,1,C2,C1
723,1,2,2,1,3,2,3,4,1,3,0,2,C0,C2
724,0,4,3,1,2,4,4,3,0,2,2,2,C1,C3
725,4,4,1,3,1,1,3,1,3,1,0,0,C1,C3
726,0,2,1,0,0,4,1,1,0,2,1,3,C1,C3
727,4,4,0,3,2,4,0,3,3,4,0,1,C2,C2
728,1,3,1,4,1,3,0,3,3,4,4,0,C3,C0
729,3,2,1,3,0,4,0,0,4,3,0,1,C3,C1
730,2,4,4,2,4,0,0,4,3,4,0,0,C1,C1
731,3,3,4,2,1,3,2,0,1,1,4,3,C2,C1
732,0,2,3,3,1,1,1,4,2,4,0,1,C2,C0
733,4,4,1,0,4,2,2,3,1,3,2,0,C1,C1
734,4,3,4,4,3,4,0,3,1,4,1,0,C1,C1
735,0,2,0,2,2,4,0,0,0,1,3,0,C1,C0
736,2,2,2,2,2,2,0,1,3,3,2,1,C0,C0
737,1,3,1,1,3,0,2,3,2,1,3,1,C3,C1
738,4,3,2,1,2,4,2,1,4,1,1,1,C3,C0
739,4,3,2,0,4,4,2,1,3,3,1,0,C0,C3
740,2,3,0,2,2,2,3,2,4,2,4,4,C3,C1
741,2,3,2,3,1,2,0,2,0,1,0,2,C3,C3
742,1,4,4,3,1,4,0,0,2,1,1,1,C0,C0
743,4,3,2,1,4,0,0,0,0,4,3,3,C2,C3
744,0,3,0,2,0,3,0,3,4,0,4,0,C0,C1
745,3,3,1,3,0,2,3,0,3,0,3,2,C2,C3
746,2,4,3,1,1,0,4,1,0,4,1,3,C3,C2
747,4,2,2,1,1,3,4,2,3,2,2,2,C0,C3
748,3,2,4,3,2,0,3,4,2,0,1,4,C0,C1
749,1,3,3,2,4,4,1,1,1,3,3,4,C1,C3
750,2,4,0,0,4,0,2,0,3,1,0,3,C2,C3
751,2,2,1,2,2,4,0,2,3,1,0,2,C2,C1
752,2,2,2,1,2,4,4,2,1,2,2,3,C1,C2
753,2,2,1,2,0,3,2,3,0,3,4,2,C0,C1
754,2,3,4,2,4,1,1,2,0,2,1,0,C3,C1
755,4,4,2,0,2,3,1,0,0,1,3,3,C0,C2
756,4,2,0,0,3,2,3,0,2,3,2,0,C0,C1
757,4,4,0,1,1,0,2,1,0,1,4,0,C2,C1
758,4,4,4,0,2,4,3,0,2,0,0,0,C0,C0
759,4,4,4,4,1,0,0,2,4,0,3,0,C1,C1
760,2,4,1,0,3,1,3,1,1,3,4,0,C0,C2
761,2,2,1,4,2,1,1,0,4,3,2,2,C1,C2
762,2,3,3,0,4,3,3,0,2,0,1,2,C0,C3
763,1,3,3,2,0,0,1,0,2,0,1,2,C0,C1
764,2,4,1,3,2,1,1,4,1,4,2,3,C0,C2
765,2,4,0,3,2,1,1,1,1,4,3,0,C0,C0
766,2,4,2,1,2,2,4,3,2,3,0,3,C3,C2
767,0,3,0,1,4,4,3,4,3,2,4,1,C3,C0
768,2,2,0,1,0,0,1,3,3,1,2,0,C1,C2
769,1,2,0,0,2,3,1,0,0,4,2,3,C1,C2
770,4,2,3,2,4,0,4,1,1,0,2,0,C0,C2
771,3,4,0,4,3,4,0,2,0,1,4,3,C2,C1
772,4,2,2,0,0,1,4,1,4,1,2,4,C2,C1
773,4,3,3,1,4,4,4,4,3,2,3,0,C2,C0
774,1,2,0,2,0,0,4,3,0,1,2,4,C3,C2
775,3,3,4,3,4,2,0,1,3,4,4,3,C1,C0
776,4,2,0,4,0,0,1,2,3,0,0,4,C3,C0
777,3,4,4,1,4,1,4,2,3,3,4,4,C0,C1
778,3,4,1,2,1,4,1,3,2,4,4,3,C3,C3
779,4,3,3,4,2,0,0,1,1,3,2,2,C3,C3
780,0,3,1,2,3,1,3,3,4,0,4,3,C0,C0
781,4,2,2,0,2,3,0,2,4,0,2,2,C0,C0
782,2,4,3,3,3,4,2,2,3,2,3,0,C0,C2
783,1,4,2,0,1,3,2,1,1,2,4,4,C1,C2
784,3,4,4,0,0,2,2,1,2,1,0,4,C3,C3
785,3,2,3,1,1,4,1,2,1,4,4,0,C0,C0
786,2,2,3,3,4,3,1,3,1,1,3,0,C0,C1
787,0,2,0,3,3,1,1,0,4,0,1,2,C0,C2
788,2,3,0,3,0,1,2,1,4,1,0,4,C1,C2
789,3,2,4,1,2,2,2,4,1,1,3,1,C1,C3
790,1,4,1,3,1,4,1,4,4,4,3,2,C2,C0
791,1,4,1,4,4,2,1,4,0,3,4,0,C3,C2
792,4,3,2,0,4,2,1,4,0,0,4,3,C2,C2
793,0,4,0,4,4,1,1,0,4,4,0,0,C1,C0
794,3,4,1,4,2,1,0,1,3,2,0,2,C2,C2
795,3,4,0,2,2,1,4,0,1,2,1,2,C3,C3
796,1,4,4,2,4,4,3,0,3,2,2,2,C0,C2
797,4,3,4,2,3,2,4,0,4,3,1,1,C0,C3
798,2,3,4,0,2,4,1,4,0,3,0,4,C2,C1
799,1,4,1,3,2,3,2,4,1,0,2,4,C3,C1
800,0,3,1,4,2,4,0,1,4,2,4,2,C3,C0
801,3,2,1,1,0,3,4,2,1,3,4,2,C1,C2
802,2,2,4,2,1,0,2,2,4,3,1,1,C2,C3
803,4,3,1,4,1,2,4,0,1,4,0,4,C3,C1
804,0,4,0,2,1,2,2,1,0,4,0,2,C3,C0
805,3,4,2,1,1,2,1,3,3,3,0,0,C2,C2
806,4,4,3,4,2,2,0,3,3,2,1,4,C2,C0
807,3,3,2,3,2,3,4,0,4,4,0,0,C2,C1
808,2,4,3,1,0,0,3,4,1,0,4,0,C1,C1
809,1,2,0,0,4,1,1,0,2,0,2,0,C2,C2
810,1,4,4,1,0,2,2,2,0,3,2,0,C2,C1
811,2,3,2,3,3,4,1,3,0,0,1,4,C1,C3
812,0,2,1,3,1,1,0,2,3,2,3,3,C2,C0
813,1,2,1,0,4,2,3,0,1,2,3,1,C2,C3
814,3,4,0,1,4,0,2,3,3,3,2,0,C3,C1
815,3,2,3,4,3,1,2,1,0,2,3,1,C2,C2
816,0,4,0,4,2,2,1,0,2,0,0,1,C1,C3
817,3,3,2,0,3,4,2,2,2,0,3,1,C3,C3
818,0,4,3,0,0,4,4,0,0,0,2,1,C3,C3
819,3,3,2,4,1,4,4,4,0,3,1,4,C1,C0
820,0,3,3,4,0,0,4,3,3,3,2,4,C2,C0
821,3,3,0,1,1,2,0,4,1,3,2,0,C2,C1
822,4,3,0,3,2,3,1,2,0,0,4,1,C0,C1
823,4,2,0,3,1,3,4,3,0,0,3,3,C0,C2
824,1,2,4,2,0,0,4,4,2,4,0,3,C1,C0
825,0,3,0,4,0,1,4,3,0,2,3,0,C3,C2
826,2,3,3,4,0,4,0,1,3,0,4,0,C1,C2
827,2,4,4,2,3,0,3,0,3,2,2,3,C3,C0
828,3,4,2,1,3,0,2,4,0,0,4,0,C1,C1
829,2,2,0,2,2,4,0,2,4,3,2,0,C3,C0
830,3,2,3,1,3,1,2,2,0,4,2,1,C3,C1
831,3,4,0,0,2,2,1,1,3,4,4,2,C3,C2
832,3,2,0,1,0,3,1,4,2,2,2,1,C0,C1
833,4,3,2,0,2,2,3,3,1,3,4,2,C1,C2
834,3,3,2,0,2,3,0,0,1,1,3,3,C1,C2
835,4,4,2,2,3,3,1,0,0,3,4,2,C2,C2
836,2,4,2,0,1,0,3,0,4,3,3,3,C3,C3
837,0,1,1,1,1,0,3,1,4,2,3,2,C2,C2
838,1,4,2,3,3,2,3,2,2,1,1,2,C1,C1
839,3,2,2,1,0,0,4,1,4,4,0,2,C2,C2
840,4,3,0,0,3,1,2,2,2,4,2,0,C1,C1
841,4,4,2,2,1,2,2,0,2,2,0,2,C0,C0
842,4,3,0,0,2,1,1,2,4,1,3,2,C1,C1
843,0,4,0,1,0,2,0,1,4,3,1,2,C1,C1
844,4,3,2,3,1,1,2,2,2,1,0,1,C0,C0
845,4,4,3,2,2,1,2,3,2,2,4,2,C1,C1
846,4,4,3,2,3,3,2,3,1,3,4,3,C2,C2
847,4,4,0,0,2,2,2,4,2,3,3,2,C1,C1
848,3,3,1,1,1,0,1,1,2,0,2,2,C0,C0
849,4,4,2,1,1,1,2,1,3,3,2,2,C3,C3
850,3,3,1,2,2,2,3,1,2,1,2,3,C1,C1
851,4,4,1,3,1,3,3,3,4,1,3,2,C3,C3
852,4,2,1,2,2,1,3,1,2,3,4,3,C0,C0
853,4,2,2,0,1,2,3,2,3,4,0,0,C0,C0
854,4,4,1,1,3,1,3,1,2,3,3,1,C2,C2
855,3,3,1,0,2,3,3,0,2,1,2,1,C0,C0
856,4,3,3,1,1,1,1,2,3,2,3,0,C1,C1
857,3,4,1,1,0,3,3,1,2,3,3,0,C1,C1
858,4,3,1,1,2,1,2,1,4,2,3,2,C2,C2
859,4,4,1,1,2,2,3,0,3,2,3,3,C2,C2
860,0,3,2,2,2,2,3,2,2,3,2,2,C1,C1
861,3,2,0,1,0,4,3,0,4,3,1,0,C0,C0
862,0,1,1,0,0,3,3,0,3,3,0,0,C1,C1
863,2,4,0,1,1,1,4,0,2,2,1,2,C2,C2
864,3,4,2,2,1,1,3,0,3,0,3,2,C3,C3
865,4,4,2,2,2,0,2,1,3,1,3,2,C3,C3
866,4,4,4,3,1,0,3,0,2,4,2,2,C3,C3
867,3,3,2,1,2,1,2,1,3,2,2,2,C1,C1
868,4,4,1,2,1,1,3,1,2,2,3,2,C1,C1
869,4,3,2,0,2,3,3,1,2,4,4,2,C1,C1
870,3,3,3,2,2,3,3,1,3,3,2,2,C2,C2
871,2,4,1,4,1,1,0,0,3,2,1,2,C0,C0
872,2,3,1,0,2,4,1,1,2,3,3,0,C2,C2
873,4,3,4,2,2,1,3,1,4,3,3,3,C2,C2
874,4,4,3,3,2,1,3,1,2,3,3,2,C2,C3
875,4,2,2,3,0,0,1,4,3,3,3,3,C0,C2
876,4,3,3,2,1,0,3,0,4,2,4,0,C3,C3
877,3,4,3,0,1,2,3,2,2,3,3,2,C1,C2
878,4,2,3,1,0,4,3,2,0,4,4,4,C2,C3
879,2,4,1,2,3,2,4,1,4,1,3,0,C2,C2
880,1,2,1,0,0,4,4,3,3,4,4,2,C3,C2
881,2,3,1,1,0,1,1,1,1,1,0,0,C2,C0
882,4,4,2,4,3,1,2,0,3,4,3,2,C2,C2
883,4,4,2,0,1,1,3,4,2,3,0,1,C3,C3
884,4,2,0,0,0,2,2,0,4,3,2,1,C3,C3
885,2,4,2,4,0,3,2,2,4,1,3,1,C1,C2
886,4,4,3,1,4,4,1,2,0,4,3,2,C2,C0
887,4,4,2,0,3,1,2,1,4,3,2,3,C3,C3
888,0,3,1,0,2,3,2,0,0,2,0,2,C1,C1
889,2,3,3,2,0,2,1,1,2,1,3,4,C2,C3
890,1,3,2,3,3,1,0,1,0,0,0,1,C2,C2
891,1,2,4,1,0,4,0,2,4,0,0,2,C2,C1
892,1,4,4,0,0,3,1,1,1,0,4,0,C1,C2
893,0,3,2,3,2,4,1,4,1,3,1,0,C0,C0
894,3,2,0,1,4,3,2,1,2,4,4,2,C0,C2
895,3,3,3,4,2,1,2,0,2,3,2,2,C2,C2
896,1,2,2,0,0,1,3,4,2,4,3,2,C0,C2
897,0,3,0,0,0,4,1,1,3,0,3,2,C2,C0
898,1,4,2,2,3,1,2,4,2,1,2,2,C1,C1
899,0,4,0,0,2,1,1,0,1,3,1,4,C3,C2
900,4,2,2,1,0,2,2,1,4,3,4,1,C1,C1
901,3,2,0,4,2,4,4,4,4,0,3,0,C3,C2
902,0,2,3,3,0,2,3,2,1,1,2,2,C1,C1
903,1,3,1,0,0,3,0,4,2,2,4,1,C0,C3
904,1,4,4,4,1,1,0,4,3,2,3,2,C2,C1
905,3,2,0,0,4,2,1,2,0,0,4,2,C2,C0
906,4,2,4,2,0,2,1,2,1,0,4,4,C3,C0
907,2,4,3,1,0,2,2,3,3,3,2,2,C1,C0
908,4,3,1,0,2,0,3,0,3,4,1,1,C0,C0
909,4,4,2,2,0,1,3,1,2,3,3,2,C1,C1
910,4,3,4,1,2,0,4,2,4,3,1,1,C2,C2
911,4,4,0,1,1,0,4,4,3,3,0,0,C3,C3
912,4,3,0,1,0,0,4,3,4,3,0,0,C3,C3
913,4,3,1,3,3,0,2,1,2,4,3,2,C0,C0
914,0,3,2,2,0,3,2,0,4,3,0,2,C1,C1
915,4,2,4,1,1,1,4,1,2,3,1,1,C2,C2
916,4,4,2,2,3,2,2,0,1,4,4,3,C1,C1
917,4,3,2,0,2,1,1,3,0,4,0,3,C3,C2
918,4,4,0,2,2,2,1,1,3,1,1,1,C1,C1
919,1,3,0,1,2,2,2,3,4,3,4,0,C0,C0
920,4,3,1,0,2,1,1,1,3,2,3,1,C2,C1
921,4,4,3,2,3,2,1,2,1,2,3,2,C3,C2
922,4,2,1,1,2,1,2,2,3,3,1,1,C0,C0
923,4,4,1,2,0,2,2,0,3,2,2,2,C2,C2
924,4,4,4,3,3,3,2,1,1,3,3,3,C3,C3
925,3,2,1,0,3,0,0,2,2,2,2,2,C3,C2
926,2,4,2,2,2,3,0,0,2,3,2,2,C1,C1
927,4,3,1,4,2,1,2,1,2,3,2,2,C3,C3
928,4,4,3,3,3,1,2,1,1,3,4,3,C3,C3
929,3,3,0,1,1,1,4,1,4,3,3,0,C2,C2
930,4,2,1,1,3,2,1,2,1,2,4,3,C3,C2
931,2,2,0,1,2,1,3,0,3,1,2,0,C1,C0
932,0,2,0,1,2,3,1,3,4,2,1,1,C0,C0
933,2,2,2,2,2,2,2,2,2,2,2,2,C1,C1
934,2,2,2,2,2,2,2,2,2,2,2,2,C1,C1
935,3,3,2,3,3,3,1,3,2,1,2,2,C2,C1
936,2,4,0,0,2,0,0,0,2,3,3,3,C1,C1
937,0,3,2,2,2,1,3,2,2,3,2,2,C1,C1
938,4,4,4,4,4,3,1,0,0,4,3,4,C3,C3
939,3,2,0,1,4,2,2,2,3,2,2,2,C1,C1
940,1,4,1,1,0,1,3,0,4,2,3,0,C1,C1
941,4,4,0,2,0,1,1,0,4,2,2,2,C2,C2
942,4,3,1,1,2,1,2,1,4,3,2,2,C3,C3
943,0,2,0,0,1,1,2,1,2,1,2,1,C2,C2
944,4,4,4,0,0,3,1,0,4,3,2,2,C3,C3
945,3,4,3,4,3,1,1,2,2,3,4,3,C3,C3
946,4,1,0,1,0,3,2,0,4,3,3,0,C3,C3
947,4,3,3,1,0,2,4,0,4,2,1,1,C3,C3
948,2,4,3,2,4,1,1,2,1,3,3,2,C2,C2
949,4,4,1,2,2,2,1,0,3,3,3,3,C2,C2
950,4,4,1,1,2,2,1,0,3,3,2,2,C2,C2
951,4,4,3,2,1,1,2,0,4,4,3,1,C3,C3
952,3,3,4,3,2,2,1,2,3,3,2,3,C1,C2
953,4,4,4,4,2,1,1,2,2,2,3,2,C2,C2
954,4,1,0,1,1,4,3,1,3,2,2,1,C0,C0
955,4,4,4,4,3,2,1,2,2,3,2,3,C3,C2
956,4,4,2,1,3,0,3,1,4,3,2,1,C1,C0
957,4,4,3,0,1,2,1,2,2,3,3,2,C2,C1
958,4,4,0,1,0,2,4,0,4,4,0,0,C2,C2
959,4,3,0,1,0,1,3,3,3,1,1,1,C2,C2
960,0,4,4,2,1,4,2,1,2,2,0,3,C3,C3
961,3,3,1,1,0,1,2,4,3,2,1,2,C1,C2
962,3,3,1,1,1,1,2,1,1,1,3,3,C1,C1
963,2,4,0,1,0,1,3,1,4,1,3,1,C2,C1
964,3,4,1,0,1,1,1,0,2,2,4,2,C3,C1
965,4,3,3,2,2,0,3,3,2,2,3,2,C1,C1
966,4,3,3,2,2,1,2,2,2,2,3,3,C1,C1
967,3,2,1,0,1,0,3,1,3,2,2,2,C0,C0
968,4,4,3,3,3,2,2,2,1,3,3,3,C2,C2
969,3,4,3,3,3,2,2,2,2,3,3,3,C2,C2
970,1,3,0,1,0,0,4,1,2,0,0,1,C0,C0
971,2,3,2,2,2,0,3,2,3,2,3,2,C1,C1
972,3,3,3,3,3,1,2,2,2,2,2,2,C1,C1
973,4,4,4,3,3,3,2,1,2,3,3,3,C3,C3
974,4,4,2,0,1,1,3,1,2,2,3,1,C0,C0
975,4,3,2,2,2,2,2,0,2,3,2,4,C1,C1
976,3,3,2,3,3,1,2,1,2,2,2,3,C2,C1
977,4,4,2,1,3,1,0,0,4,2,4,1,C3,C3
978,2,1,0,1,0,1,4,0,4,2,1,1,C0,C0
979,4,4,4,4,1,3,2,0,2,4,4,4,C2,C3
980,4,3,2,2,2,2,2,0,2,3,2,4,C1,C1
981,4,3,2,0,2,3,3,1,2,3,3,2,C1,C1
982,3,4,0,0,3,1,2,0,3,1,4,2,C3,C3
983,1,4,2,2,2,2,2,0,2,3,2,3,C2,C1
984,2,2,2,2,2,2,3,3,2,2,2,2,C1,C1
985,4,4,1,0,2,1,3,1,4,2,2,1,C3,C3
986,4,4,2,1,2,1,1,0,3,1,2,2,C0,C1
987,3,4,1,1,1,2,2,0,2,3,4,3,C2,C0
988,4,3,4,2,2,2,1,0,2,2,1,3,C3,C1
989,4,3,2,0,1,2,2,2,2,3,3,2,C2,C1
990,4,4,0,0,1,1,2,1,4,2,3,2,C3,C3
991,4,4,0,1,1,0,4,0,3,2,1,0,C1,C1
992,4,3,0,1,0,2,2,0,2,1,4,2,C1,C2
993,4,3,1,1,2,2,3,0,2,2,2,3,C2,C2
994,4,3,3,0,3,1,3,2,2,3,2,2,C2,C1
995,4,4,4,4,2,1,0,0,2,3,4,3,C3,C3
996,4,4,4,2,3,2,1,2,1,2,3,2,C1,C2
997,2,3,4,2,2,1,3,0,2,3,3,2,C1,C0
998,3,4,1,0,2,0,2,0,2,3,3,2,C2,C2
999,2,2,1,1,2,1,2,4,3,2,1,2,C0,C0
1000,2,4,1,2,1,1,3,1,2,3,2,1,C2,C2
1001,3,3,0,1,1,2,1,0,1,2,3,2,C3,C2
1002,4,4,3,2,2,2,2,2,3,3,3,2,C2,C1
1003,4,4,2,0,1,1,3,1,2,3,4,1,C3,C3
1004,4,4,1,2,2,3,2,1,2,3,4,2,C3,C3
1005,1,4,2,0,1,2,2,0,2,1,3,1,C3,C3
1006,4,4,4,2,3,2,3,1,1,4,3,1,C3,C3
1007,3,3,2,1,3,1,4,0,3,3,3,2,C2,C2
1008,3,2,0,0,1,1,2,0,3,3,2,1,C1,C1
1009,1,4,1,2,1,2,4,0,4,2,3,0,C0,C0
1010,2,3,3,2,2,1,3,1,4,3,3,2,C3,C3
1011,2,3,3,2,2,0,2,0,3,2,1,1,C1,C1
1012,0,4,3,3,2,2,4,0,3,2,2,1,C2,C2
1013,4,4,1,0,1,1,2,1,2,4,3,1,C3,C3
1014,4,3,1,1,1,0,3,1,3,2,1,1,C3,C3
1015,4,3,3,2,0,2,1,0,3,3,1,4,C3,C2
1016,4,3,0,1,1,2,2,0,3,2,0,1,C0,C0
1017,4,3,1,1,2,1,2,0,3,3,4,2,C3,C2
1018,4,4,3,4,1,2,4,1,2,3,4,4,C2,C1
1019,0,3,1,1,0,1,3,2,3,2,1,1,C0,C0
1020,4,4,2,2,1,1,2,1,2,2,1,2,C2,C1
1021,4,3,1,0,0,2,2,1,2,3,4,3,C2,C0
1022,4,4,2,2,1,0,1,0,2,2,3,2,C3,C3
1023,2,3,2,2,3,0,2,2,2,3,3,2,C0,C1
1024,4,4,2,2,3,3,3,0,2,2,4,0,C2,C2
1025,3,3,2,0,0,0,4,3,3,0,0,0,C3,C1
1026,4,3,4,1,3,1,4,0,0,1,0,1,C3,C2
1027,3,2,1,0,2,0,2,2,2,3,3,3,C3,C1
1028,3,4,3,2,3,1,2,3,2,2,1,2,C2,C2
1029,4,4,0,1,1,2,4,2,4,3,1,1,C0,C1
1030,3,4,2,3,1,3,3,1,0,3,1,2,C1,C1
1031,4,4,1,1,2,1,2,3,3,3,2,2,C2,C2
1032,3,3,3,2,1,0,2,0,2,1,3,2,C1,C0
1033,4,4,2,2,2,2,0,3,3,1,3,3,C2,C1
1034,4,2,4,2,2,2,2,1,2,3,0,0,C3,C2
1035,4,2,0,1,1,0,2,0,4,3,2,0,C3,C2
1036,4,4,4,4,3,3,2,0,2,3,3,3,C3,C3
1037,4,3,2,2,2,3,3,1,3,2,3,2,C2,C1
1038,2,4,2,2,3,2,2,2,3,4,4,2,C3,C1
1039,3,4,4,2,1,1,2,1,3,2,2,3,C1,C1
1040,4,3,2,0,2,3,1,1,2,3,3,2,C1,C1
1041,3,3,1,0,2,0,3,4,2,3,1,0,C1,C2
1042,2,4,4,3,3,2,1,2,2,4,4,3,C3,C3
1043,4,4,1,1,2,3,3,2,3,3,3,2,C1,C1
1044,2,3,0,1,2,3,4,3,1,2,2,1,C1,C0
1045,4,3,1,2,2,4,1,1,0,1,4,1,C2,C2
1046,1,3,1,1,1,1,4,0,3,0,0,0,C0,C0
1047,4,3,2,1,2,1,3,2,3,2,2,1,C2,C1
1048,4,4,2,2,3,1,3,0,4,3,3,1,C3,C3
1049,4,3,3,2,1,1,3,3,2,1,1,3,C1,C0
1050,4,2,1,1,1,3,2,4,2,1,3,1,C1,C1
1051,0,4,4,2,1,1,0,4,1,2,4,2,C2,C1
1052,4,3,2,2,0,1,4,3,3,3,2,3,C2,C2
1053,4,2,4,0,1,1,3,2,3,2,0,1,C0,C0
1054,4,3,0,1,2,2,3,2,4,3,4,2,C2,C1
1055,4,3,2,0,2,1,2,0,4,3,3,2,C1,C1
1056,4,3,1,3,3,3,2,2,4,3,2,3,C2,C1
1057,0,2,1,0,0,1,2,1,2,4,4,2,C3,C2
1058,4,3,1,0,2,2,3,0,4,3,4,2,C0,C0
1059,2,2,0,1,1,3,2,0,4,2,4,1,C3,C1
1060,4,2,1,0,2,2,2,1,3,2,4,2,C2,C2
1061,1,4,1,2,0,2,4,0,2,1,0,1,C0,C0
1062,4,2,4,2,1,1,1,3,2,3,3,3,C2,C1
1063,3,4,0,1,0,2,4,0,4,3,1,0,C1,C1
1064,4,3,3,0,2,2,3,0,3,2,3,3,C0,C1
1065,2,4,4,0,0,1,1,0,4,3,3,0,C0,C0
1066,3,3,3,0,2,2,2,2,1,2,0,3,C1,C2
1067,1,3,4,2,3,1,1,0,1,3,3,3,C2,C3
1068,0,3,1,1,0,0,2,2,4,3,3,3,C1,C0
1069,4,2,0,1,0,0,1,3,0,3,3,2,C2,C2
1070,4,2,0,1,1,2,4,2,4,3,3,1,C1,C0
1071,3,3,0,1,1,1,2,1,4,1,2,0,C0,C0
1072,1,3,0,0,2,3,3,0,4,3,3,2,C0,C0
1073,3,4,2,4,2,1,3,3,4,2,4,3,C1,C1
1074,3,2,0,2,1,1,2,1,2,4,4,2,C0,C0
1075,3,2,0,0,1,3,3,2,4,0,4,1,C0,C0
1076,3,4,1,1,3,2,2,0,4,3,2,1,C3,C3
1077,2,3,1,1,1,1,3,1,2,2,3,2,C1,C1
1078,3,4,2,3,2,2,1,2,1,4,4,2,C3,C3
1079,3,4,2,1,0,2,2,1,3,2,1,0,C0,C0
1080,4,4,1,2,2,0,1,1,3,3,3,3,C2,C1
1081,3,3,0,1,1,2,4,0,4,1,4,1,C1,C0
1082,4,4,0,1,3,2,2,4,2,4,3,2,C0,C0
1083,4,4,2,2,4,1,1,4,0,3,4,3,C3,C3
1084,3,4,1,0,3,3,3,1,1,3,3,3,C2,C2
1085,4,4,3,2,2,2,0,1,2,3,2,3,C3,C1
1086,3,2,0,1,0,1,4,3,2,2,2,2,C0,C0
1087,3,4,0,1,3,4,3,1,3,2,0,2,C2,C2
1088,4,4,1,2,0,0,4,3,2,2,2,0,C0,C1
1089,4,4,2,2,0,0,2,4,4,1,2,1,C0,C0
1090,1,3,0,0,0,0,3,0,3,2,0,0,C3,C3
1091,0,4,2,1,1,0,3,2,3,1,2,0,C1,C1
1092,3,3,0,1,1,1,3,1,3,0,1,0,C0,C0
1093,0,4,2,2,1,3,4,3,4,3,1,1,C3,C1
1094,3,4,3,1,3,0,0,1,2,4,4,2,C2,C2
1095,4,2,4,2,2,2,2,1,3,2,3,2,C3,C3
1096,0,4,0,1,0,0,4,0,1,2,2,0,C1,C1
1097,2,2,2,1,2,2,4,2,3,3,2,2,C0,C0
1098,0,3,0,1,3,2,3,0,3,2,2,2,C3,C1
1099,3,3,0,1,0,2,2,4,1,4,4,3,C3,C1
1100,0,3,4,2,2,0,4,0,3,1,2,0,C1,C1
1101,4,4,2,1,2,1,2,3,3,3,2,2,C3,C3
